NAME : LPS-n26-m5
COMMENT : (Lartu-Peter-Santi Plot, instance 9205 out of 39200. 26 customers.)
TYPE : CVRP
DIMENSION : 26
EDGE_WEIGHT_TYPE : EUC_2D
CAPACITY : 146
NODE_COORD_SECTION
 1 63 1
 2 21 28
 3 11 23
 4 8 8
 5 83 22
 6 84 90
 7 53 74
 8 87 58
 9 96 44
 10 79 19
 11 36 49
 12 94 19
 13 5 75
 14 2 4
 15 50 65
 16 33 18
 17 69 60
 18 54 62
 19 92 88
 20 4 98
 21 35 9
 22 61 93
 23 64 20
 24 85 94
 25 43 75
 26 63 76
DEMAND_SECTION
1 0
2 142
3 98
4 29
5 142
6 15
7 13
8 140
9 117
10 87
11 14
12 103
13 30
14 125
15 105
16 145
17 115
18 59
19 81
20 19
21 18
22 9
23 145
24 98
25 67
26 70
DEPOT_SECTION
 1
 -1
EOF
